language ESSENCE' 1.0
$ minion Nodes: 26
$ minion TotalTime: 0.010949
$ Savile Row TotalTime: 1.451
letting valid_SetExplicitVarSizeWithMarker_tuple1 be 1
letting valid_SetExplicitVarSizeWithMarker_tuple2_AsReln_RelationAsSet_SetExplicitVarSize_tuple2_tuple2_tuple1 be [[6, 6, 6, 6;int(1..4)], 
[6, 6, 6, 6;int(1..4)], 
[6, 6, 6, 6;int(1..4)], 
[6, 6, 6, 6;int(1..4)];int(1..4)]
letting valid_SetExplicitVarSizeWithMarker_tuple2_AsReln_RelationAsSet_SetExplicitVarSize_tuple2_tuple2_tuple2 be [[9, 9, 9, 9;int(1..4)], 
[9, 9, 9, 9;int(1..4)], 
[9, 9, 9, 9;int(1..4)], 
[9, 9, 9, 9;int(1..4)];int(1..4)]
letting valid_SetExplicitVarSizeWithMarker_tuple2_AsReln_RelationAsSet_SetExplicitVarSize_tuple2_tuple1 be [[4, 5, 4, 4;int(1..4)], 
[4, 5, 4, 4;int(1..4)], 
[4, 5, 4, 4;int(1..4)], 
[4, 5, 4, 4;int(1..4)];int(1..4)]
letting valid_SetExplicitVarSizeWithMarker_tuple2_AsReln_RelationAsSet_SetExplicitVarSize_tuple1 be [[true, true, false, false;int(1..4)], 
[true, true, false, false;int(1..4)], 
[true, true, false, false;int(1..4)], 
[true, true, false, false;int(1..4)];int(1..4)]
